TCS_Benchmarks/redos_fix/snort3_output_distinct_3737_3736_85_0.smt2
(set-logic QF_S)
(declare-const x String)
(assert (str.in.re x (re.inter  (re.++ (re.* (re.union (re.range "\u{00}" "\u{09}") (re.range "\u{0b}" "\u{0c}") (re.range "\u{0e}" "\u{84}") (re.range "\u{86}" "\u{ff}")) ) (re.+ (re.union (re.range "\u{30}" "\u{39}") (re.range "\u{41}" "\u{5a}") (re.range "\u{5f}" "\u{5f}") (re.range "\u{61}" "\u{7a}") (re.range "\u{aa}" "\u{aa}") (re.range "\u{b5}" "\u{b5}") (re.range "\u{ba}" "\u{ba}") (re.range "\u{c0}" "\u{d6}") (re.range "\u{d8}" "\u{f6}") (re.range "\u{f8}" "\u{ff}")) ))  (re.++ (re.* (re.union (re.range "\u{00}" "\u{09}") (re.range "\u{0b}" "\u{0c}") (re.range "\u{0e}" "\u{84}") (re.range "\u{86}" "\u{ff}")) ) (re.++  (re.++ (re.+ (re.union (re.range "\u{30}" "\u{39}") (re.range "\u{41}" "\u{5a}") (re.range "\u{5f}" "\u{5f}") (re.range "\u{61}" "\u{7a}") (re.range "\u{aa}" "\u{aa}") (re.range "\u{b5}" "\u{b5}") (re.range "\u{ba}" "\u{ba}") (re.range "\u{c0}" "\u{d6}") (re.range "\u{d8}" "\u{f6}") (re.range "\u{f8}" "\u{ff}")) ) (re.++  (str.to.re "\u{2e}") (re.++  (re.union  (str.to.re "\u{73}")  (str.to.re "\u{53}")) (re.++  (re.union  (str.to.re "\u{74}")  (str.to.re "\u{54}")) (re.++  (re.union  (str.to.re "\u{79}")  (str.to.re "\u{59}")) (re.++  (re.union  (str.to.re "\u{6c}")  (str.to.re "\u{4c}")) (re.++  (re.union  (str.to.re "\u{65}")  (str.to.re "\u{45}")) (re.++  (str.to.re "\u{2e}") (re.++  (re.union  (str.to.re "\u{76}")  (str.to.re "\u{56}")) (re.++  (re.union  (str.to.re "\u{69}")  (str.to.re "\u{49}")) (re.++  (re.union  (str.to.re "\u{73}")  (str.to.re "\u{53}")) (re.++  (re.union  (str.to.re "\u{69}")  (str.to.re "\u{49}")) (re.++  (re.union  (str.to.re "\u{62}")  (str.to.re "\u{42}")) (re.++  (re.union  (str.to.re "\u{69}")  (str.to.re "\u{49}")) (re.++  (re.union  (str.to.re "\u{6c}")  (str.to.re "\u{4c}")) (re.++  (re.union  (str.to.re "\u{69}")  (str.to.re "\u{49}")) (re.++  (re.union  (str.to.re "\u{74}")  (str.to.re "\u{54}")) (re.++  (re.union  (str.to.re "\u{79}")  (str.to.re "\u{59}")) (re.++ (re.* (re.union (re.range "\u{00}" "\u{09}") (re.range "\u{0b}" "\u{0c}") (re.range "\u{0e}" "\u{84}") (re.range "\u{86}" "\u{ff}")) ) (re.++ (re.+ (re.union (re.range "\u{30}" "\u{39}") (re.range "\u{41}" "\u{5a}") (re.range "\u{5f}" "\u{5f}") (re.range "\u{61}" "\u{7a}") (re.range "\u{aa}" "\u{aa}") (re.range "\u{b5}" "\u{b5}") (re.range "\u{ba}" "\u{ba}") (re.range "\u{c0}" "\u{d6}") (re.range "\u{d8}" "\u{f6}") (re.range "\u{f8}" "\u{ff}")) ) (re.++  (str.to.re "\u{2e}") (re.++  (re.union  (str.to.re "\u{73}")  (str.to.re "\u{53}")) (re.++  (re.union  (str.to.re "\u{72}")  (str.to.re "\u{52}")) (re.++  (re.union  (str.to.re "\u{63}")  (str.to.re "\u{43}")) (re.++ (re.opt (re.union (re.range "\u{09}" "\u{0d}") (re.range "\u{20}" "\u{20}") (re.range "\u{85}" "\u{85}") (re.range "\u{a0}" "\u{a0}")) ) (re.++  (str.to.re "\u{3d}") (re.++ (re.opt (re.union (re.range "\u{09}" "\u{0d}") (re.range "\u{20}" "\u{20}") (re.range "\u{85}" "\u{85}") (re.range "\u{a0}" "\u{a0}")) ) (re.++  (re.union  (str.to.re "\u{22}")  (str.to.re "\u{27}")) (re.++ (re.* (re.comp  (re.union  (str.to.re "\u{22}")  (str.to.re "\u{27}"))) ) (re.++  (str.to.re "\u{2e}") (re.++  (re.union  (str.to.re "\u{70}")  (str.to.re "\u{50}")) (re.++  (re.union  (str.to.re "\u{68}")  (str.to.re "\u{48}")) (re.++  (re.union  (str.to.re "\u{70}")  (str.to.re "\u{50}")) (re.++ (re.* (re.union (re.range "\u{00}" "\u{09}") (re.range "\u{0b}" "\u{0c}") (re.range "\u{0e}" "\u{84}") (re.range "\u{86}" "\u{ff}")) ) (re.++  (str.to.re "\u{2e}") (re.++  (re.union  (str.to.re "\u{61}")  (str.to.re "\u{41}")) (re.++  (re.union  (str.to.re "\u{70}")  (str.to.re "\u{50}")) (re.++  (re.union  (str.to.re "\u{70}")  (str.to.re "\u{50}")) (re.++  (re.union  (str.to.re "\u{65}")  (str.to.re "\u{45}")) (re.++  (re.union  (str.to.re "\u{6e}")  (str.to.re "\u{4e}")) (re.++  (re.union  (str.to.re "\u{64}")  (str.to.re "\u{44}")) (re.++  (re.union  (str.to.re "\u{63}")  (str.to.re "\u{43}")) (re.++  (re.union  (str.to.re "\u{68}")  (str.to.re "\u{48}")) (re.++  (re.union  (str.to.re "\u{69}")  (str.to.re "\u{49}")) (re.++  (re.union  (str.to.re "\u{6c}")  (str.to.re "\u{4c}")) (re.++  (re.union  (str.to.re "\u{64}")  (str.to.re "\u{44}"))  (str.to.re "\u{28}"))))))))))))))))))))))))))))))))))))))))))))))) (re.+ (re.union (re.range "\u{30}" "\u{39}") (re.range "\u{41}" "\u{5a}") (re.range "\u{5f}" "\u{5f}") (re.range "\u{61}" "\u{7a}") (re.range "\u{aa}" "\u{aa}") (re.range "\u{b5}" "\u{b5}") (re.range "\u{ba}" "\u{ba}") (re.range "\u{c0}" "\u{d6}") (re.range "\u{d8}" "\u{f6}") (re.range "\u{f8}" "\u{ff}")) ))) )))
(check-sat)
(get-model)