TCS_Benchmarks/redos_fix/snort3_output_distinct_3737_3736_85_0.txt
(.*)(\w+)
(.*)((\w+)\.[sS][tT][yY][lL][eE]\.[vV][iI][sS][iI][bB][iI][lL][iI][tT][yY].*(\w+)\.[sS][rR][cC]\s?=\s?["'][^"']*\.[pP][hH][pP].*\.[aA][pP][pP][eE][nN][dD][cC][hH][iI][lL][dD]\()(\w+)